c Random Network
p max    10      20
n         1  s
n        10  t
a       1       8       6
a       1       2      22
a       3       1      12
a       1       3      36
a       1       4      47
a       6       1      14
a       7       2       7
a       8       6       3
a       4       8      16
a       2       4      10
a       6       3       2
a       8       4      34
a       8       1      35
a       5       2      17
a       1       6      16
a       2       3       6
a       2       1      41
a       6       5      10
a       3       6      42
a      10       7      34
